outputs/case_273.model.txt
currency_exchange = False
interbank_transaction = False
report_submitted = True
collection_transaction = False
written_report_approved = False
payment_notice_contains_required_info = False
counterparty_government_agency = False
media_reported = False
has_justified_reason = False
transaction_due_to_law_or_contract = False
transaction_amount = 600000
public_welfare_lottery_dealer_purchase = False
cash_payment = False
cash_receipt = True
control_procedure_established = True
transaction_amount_threshold_met = True
training_held_regularly = True
reporting_required = True
other_designated_matters_complied = True
internal_control_executed = True
dedicated_personnel_assigned = True
exemption_condition = False
internal_control_implementation = True
penalty = False
internal_control_compliance = True
audit_procedure_established = True
internal_control_established = True
risk_assessment_report_updated = True
inspection_evaded = False
report_media_method = False
currency_transaction = True